c "617075.clq"
p edge 203 2992
e 1 17
e 1 18
e 1 19
e 1 20
e 1 21
e 1 22
e 1 23
e 1 24
e 1 31
e 1 34
e 1 37
e 1 39
e 1 51
e 1 53
e 1 61
e 1 62
e 1 63
e 1 68
e 1 69
e 1 75
e 1 110
e 1 119
e 1 122
e 1 138
e 1 141
e 1 150
e 1 151
e 1 153
e 1 154
e 1 156
e 1 157
e 1 163
e 1 172
e 1 176
e 1 197
e 1 202
e 2 17
e 2 19
e 2 22
e 2 23
e 2 25
e 2 26
e 2 30
e 2 31
e 2 33
e 2 34
e 2 36
e 2 39
e 2 48
e 2 50
e 2 53
e 2 54
e 2 57
e 2 61
e 2 71
e 2 79
e 2 91
e 2 96
e 2 107
e 2 109
e 2 113
e 2 117
e 2 122
e 2 128
e 2 132
e 2 133
e 2 137
e 2 147
e 2 148
e 2 156
e 2 159
e 2 172
e 2 177
e 2 183
e 3 17
e 3 18
e 3 19
e 3 20
e 3 21
e 3 22
e 3 23
e 3 24
e 3 25
e 3 27
e 3 32
e 3 39
e 3 44
e 3 49
e 3 50
e 3 52
e 3 54
e 3 59
e 3 60
e 3 66
e 3 74
e 3 76
e 3 80
e 3 89
e 3 105
e 3 117
e 3 120
e 3 129
e 3 131
e 3 146
e 3 150
e 3 158
e 3 160
e 3 181
e 3 182
e 3 185
e 3 190
e 4 17
e 4 18
e 4 20
e 4 21
e 4 22
e 4 25
e 4 26
e 4 36
e 4 60
e 4 77
e 4 78
e 4 92
e 4 115
e 4 118
e 4 123
e 4 130
e 4 170
e 4 191
e 4 193
e 4 199
e 5 17
e 5 18
e 5 19
e 5 20
e 5 21
e 5 22
e 5 24
e 5 26
e 5 28
e 5 30
e 5 32
e 5 33
e 5 35
e 5 43
e 5 45
e 5 58
e 5 59
e 5 60
e 5 64
e 5 65
e 5 77
e 5 81
e 5 82
e 5 86
e 5 98
e 5 99
e 5 100
e 5 105
e 5 106
e 5 125
e 5 127
e 5 138
e 5 139
e 5 141
e 5 144
e 5 150
e 5 163
e 5 164
e 5 165
e 5 199
e 6 17
e 6 18
e 6 19
e 6 20
e 6 21
e 6 22
e 6 23
e 6 24
e 6 25
e 6 27
e 6 29
e 6 31
e 6 32
e 6 33
e 6 34
e 6 36
e 6 38
e 6 39
e 6 43
e 6 45
e 6 48
e 6 49
e 6 58
e 6 61
e 6 62
e 6 66
e 6 67
e 6 70
e 6 75
e 6 80
e 6 83
e 6 85
e 6 86
e 6 87
e 6 90
e 6 93
e 6 99
e 6 104
e 6 109
e 6 112
e 6 115
e 6 117
e 6 124
e 6 126
e 6 137
e 6 139
e 6 140
e 6 142
e 6 163
e 6 170
e 6 180
e 6 183
e 6 187
e 6 189
e 6 197
e 6 201
e 7 17
e 7 18
e 7 19
e 7 20
e 7 23
e 7 24
e 7 26
e 7 27
e 7 29
e 7 30
e 7 31
e 7 33
e 7 34
e 7 35
e 7 39
e 7 41
e 7 42
e 7 44
e 7 49
e 7 50
e 7 55
e 7 61
e 7 64
e 7 67
e 7 79
e 7 84
e 7 93
e 7 95
e 7 97
e 7 98
e 7 104
e 7 112
e 7 115
e 7 127
e 7 147
e 7 149
e 7 152
e 7 155
e 7 168
e 7 186
e 7 187
e 7 194
e 7 203
e 8 17
e 8 18
e 8 19
e 8 20
e 8 21
e 8 24
e 8 25
e 8 28
e 8 31
e 8 37
e 8 39
e 8 45
e 8 48
e 8 49
e 8 53
e 8 55
e 8 56
e 8 60
e 8 63
e 8 65
e 8 67
e 8 72
e 8 80
e 8 81
e 8 89
e 8 91
e 8 94
e 8 96
e 8 104
e 8 105
e 8 111
e 8 118
e 8 138
e 8 142
e 8 154
e 8 159
e 8 196
e 8 197
e 9 17
e 9 18
e 9 19
e 9 20
e 9 21
e 9 23
e 9 24
e 9 27
e 9 28
e 9 29
e 9 34
e 9 37
e 9 42
e 9 50
e 9 60
e 9 68
e 9 70
e 9 72
e 9 73
e 9 74
e 9 79
e 9 82
e 9 84
e 9 92
e 9 94
e 9 108
e 9 123
e 9 140
e 9 152
e 9 153
e 9 164
e 9 176
e 9 189
e 10 17
e 10 18
e 10 20
e 10 25
e 10 26
e 10 27
e 10 37
e 10 38
e 10 40
e 10 50
e 10 51
e 10 55
e 10 68
e 10 70
e 10 83
e 10 103
e 10 106
e 10 109
e 10 113
e 10 124
e 10 126
e 10 128
e 10 188
e 11 17
e 11 18
e 11 19
e 11 20
e 11 21
e 11 22
e 11 23
e 11 24
e 11 25
e 11 26
e 11 27
e 11 29
e 11 30
e 11 31
e 11 32
e 11 42
e 11 43
e 11 48
e 11 50
e 11 52
e 11 54
e 11 58
e 11 63
e 11 66
e 11 67
e 11 70
e 11 71
e 11 73
e 11 81
e 11 85
e 11 93
e 11 115
e 11 118
e 11 124
e 11 136
e 11 137
e 11 140
e 11 142
e 11 143
e 11 147
e 11 151
e 11 163
e 11 165
e 11 170
e 11 194
e 11 202
e 12 17
e 12 18
e 12 19
e 12 20
e 12 22
e 12 27
e 12 28
e 12 29
e 12 33
e 12 35
e 12 36
e 12 38
e 12 39
e 12 40
e 12 42
e 12 44
e 12 47
e 12 51
e 12 57
e 12 58
e 12 61
e 12 62
e 12 69
e 12 72
e 12 74
e 12 78
e 12 83
e 12 85
e 12 90
e 12 93
e 12 98
e 12 105
e 12 107
e 12 108
e 12 111
e 12 117
e 12 119
e 12 141
e 12 165
e 12 166
e 12 170
e 12 171
e 12 179
e 12 181
e 12 184
e 12 199
e 13 17
e 13 18
e 13 19
e 13 20
e 13 21
e 13 22
e 13 23
e 13 24
e 13 25
e 13 27
e 13 28
e 13 29
e 13 33
e 13 34
e 13 36
e 13 46
e 13 47
e 13 48
e 13 49
e 13 52
e 13 55
e 13 58
e 13 62
e 13 65
e 13 68
e 13 74
e 13 77
e 13 82
e 13 85
e 13 87
e 13 93
e 13 94
e 13 95
e 13 97
e 13 107
e 13 109
e 13 114
e 13 115
e 13 118
e 13 123
e 13 131
e 13 133
e 13 134
e 13 147
e 13 149
e 13 156
e 13 157
e 13 158
e 13 161
e 13 162
e 13 164
e 13 176
e 13 180
e 13 184
e 13 189
e 13 191
e 13 192
e 13 198
e 13 203
e 14 17
e 14 18
e 14 19
e 14 21
e 14 23
e 14 45
e 14 50
e 14 53
e 14 111
e 14 132
e 14 141
e 14 200
e 14 202
e 15 17
e 15 18
e 15 19
e 15 20
e 15 21
e 15 22
e 15 23
e 15 24
e 15 25
e 15 26
e 15 28
e 15 30
e 15 32
e 15 35
e 15 36
e 15 38
e 15 41
e 15 46
e 15 50
e 15 65
e 15 74
e 15 77
e 15 80
e 15 82
e 15 100
e 15 102
e 15 113
e 15 137
e 15 140
e 15 148
e 15 151
e 15 154
e 15 155
e 15 165
e 15 167
e 15 168
e 15 176
e 15 183
e 15 188
e 15 191
e 15 192
e 15 194
e 15 199
e 15 201
e 16 17
e 16 18
e 16 19
e 16 21
e 16 22
e 16 25
e 16 27
e 16 30
e 16 31
e 16 32
e 16 33
e 16 34
e 16 36
e 16 37
e 16 40
e 16 41
e 16 42
e 16 47
e 16 54
e 16 63
e 16 69
e 16 76
e 16 78
e 16 81
e 16 83
e 16 90
e 16 110
e 16 120
e 16 125
e 16 171
e 16 174
e 16 202
e 17 18
e 17 19
e 17 20
e 17 21
e 17 22
e 17 23
e 17 24
e 17 25
e 17 26
e 17 28
e 17 29
e 17 30
e 17 31
e 17 33
e 17 34
e 17 35
e 17 37
e 17 39
e 17 40
e 17 41
e 17 45
e 17 47
e 17 48
e 17 53
e 17 54
e 17 56
e 17 57
e 17 61
e 17 62
e 17 63
e 17 66
e 17 69
e 17 70
e 17 75
e 17 76
e 17 77
e 17 78
e 17 82
e 17 88
e 17 94
e 17 100
e 17 101
e 17 103
e 17 107
e 17 113
e 17 115
e 17 122
e 17 128
e 17 141
e 17 143
e 17 144
e 17 145
e 17 174
e 17 175
e 17 176
e 17 178
e 17 183
e 17 189
e 17 192
e 17 200
e 18 19
e 18 20
e 18 21
e 18 22
e 18 23
e 18 24
e 18 25
e 18 26
e 18 27
e 18 28
e 18 29
e 18 30
e 18 31
e 18 32
e 18 33
e 18 34
e 18 37
e 18 38
e 18 40
e 18 41
e 18 42
e 18 43
e 18 44
e 18 45
e 18 47
e 18 48
e 18 52
e 18 54
e 18 55
e 18 56
e 18 57
e 18 59
e 18 60
e 18 63
e 18 64
e 18 65
e 18 67
e 18 69
e 18 70
e 18 72
e 18 77
e 18 78
e 18 82
e 18 84
e 18 88
e 18 93
e 18 96
e 18 97
e 18 99
e 18 101
e 18 106
e 18 111
e 18 115
e 18 122
e 18 126
e 18 130
e 18 132
e 18 133
e 18 136
e 18 138
e 18 145
e 18 146
e 18 147
e 18 155
e 18 156
e 18 157
e 18 160
e 18 162
e 18 164
e 18 165
e 18 172
e 18 173
e 18 174
e 18 175
e 18 176
e 18 177
e 18 178
e 18 179
e 18 181
e 18 183
e 18 185
e 18 186
e 18 187
e 18 196
e 18 199
e 18 200
e 19 20
e 19 21
e 19 22
e 19 23
e 19 25
e 19 26
e 19 27
e 19 28
e 19 29
e 19 30
e 19 32
e 19 33
e 19 35
e 19 36
e 19 38
e 19 40
e 19 41
e 19 42
e 19 44
e 19 45
e 19 53
e 19 56
e 19 57
e 19 58
e 19 59
e 19 64
e 19 65
e 19 66
e 19 69
e 19 70
e 19 76
e 19 81
e 19 85
e 19 88
e 19 92
e 19 95
e 19 110
e 19 118
e 19 132
e 19 133
e 19 137
e 19 138
e 19 148
e 19 156
e 19 158
e 19 161
e 19 165
e 19 170
e 19 171
e 19 178
e 19 181
e 19 182
e 19 186
e 19 189
e 19 191
e 19 193
e 19 195
e 19 202
e 20 21
e 20 22
e 20 23
e 20 24
e 20 25
e 20 26
e 20 27
e 20 28
e 20 29
e 20 30
e 20 31
e 20 32
e 20 33
e 20 34
e 20 35
e 20 36
e 20 41
e 20 42
e 20 45
e 20 46
e 20 48
e 20 49
e 20 53
e 20 55
e 20 56
e 20 57
e 20 58
e 20 59
e 20 62
e 20 64
e 20 67
e 20 69
e 20 70
e 20 71
e 20 73
e 20 78
e 20 81
e 20 82
e 20 84
e 20 86
e 20 87
e 20 88
e 20 89
e 20 91
e 20 94
e 20 96
e 20 99
e 20 104
e 20 111
e 20 113
e 20 118
e 20 119
e 20 122
e 20 123
e 20 125
e 20 133
e 20 134
e 20 139
e 20 142
e 20 145
e 20 146
e 20 150
e 20 152
e 20 153
e 20 155
e 20 160
e 20 171
e 20 174
e 20 178
e 20 180
e 20 182
e 20 184
e 20 185
e 20 197
e 20 198
e 20 199
e 21 22
e 21 23
e 21 24
e 21 26
e 21 28
e 21 29
e 21 30
e 21 32
e 21 34
e 21 35
e 21 37
e 21 39
e 21 40
e 21 44
e 21 45
e 21 46
e 21 47
e 21 49
e 21 51
e 21 52
e 21 56
e 21 57
e 21 58
e 21 59
e 21 62
e 21 65
e 21 72
e 21 75
e 21 76
e 21 81
e 21 87
e 21 89
e 21 91
e 21 95
e 21 99
e 21 107
e 21 108
e 21 111
e 21 121
e 21 123
e 21 126
e 21 129
e 21 131
e 21 137
e 21 140
e 21 145
e 21 149
e 21 153
e 21 177
e 21 182
e 21 184
e 21 185
e 21 188
e 21 189
e 21 191
e 21 194
e 22 23
e 22 24
e 22 25
e 22 26
e 22 27
e 22 28
e 22 29
e 22 31
e 22 32
e 22 38
e 22 40
e 22 42
e 22 43
e 22 44
e 22 45
e 22 46
e 22 47
e 22 49
e 22 50
e 22 54
e 22 57
e 22 58
e 22 59
e 22 61
e 22 62
e 22 67
e 22 69
e 22 72
e 22 75
e 22 78
e 22 81
e 22 87
e 22 93
e 22 97
e 22 102
e 22 103
e 22 107
e 22 110
e 22 113
e 22 118
e 22 121
e 22 122
e 22 128
e 22 129
e 22 136
e 22 141
e 22 143
e 22 145
e 22 146
e 22 149
e 22 150
e 22 152
e 22 158
e 22 159
e 22 164
e 22 171
e 22 182
e 22 183
e 22 186
e 22 187
e 22 199
e 23 24
e 23 25
e 23 26
e 23 27
e 23 30
e 23 31
e 23 35
e 23 38
e 23 39
e 23 40
e 23 42
e 23 43
e 23 48
e 23 51
e 23 52
e 23 55
e 23 56
e 23 57
e 23 63
e 23 65
e 23 70
e 23 73
e 23 74
e 23 75
e 23 76
e 23 78
e 23 80
e 23 83
e 23 86
e 23 88
e 23 89
e 23 90
e 23 93
e 23 95
e 23 103
e 23 115
e 23 116
e 23 117
e 23 121
e 23 133
e 23 148
e 23 149
e 23 151
e 23 156
e 23 182
e 23 197
e 23 203
e 24 26
e 24 27
e 24 28
e 24 29
e 24 30
e 24 31
e 24 32
e 24 34
e 24 35
e 24 36
e 24 39
e 24 40
e 24 41
e 24 43
e 24 46
e 24 47
e 24 50
e 24 54
e 24 55
e 24 56
e 24 58
e 24 60
e 24 66
e 24 68
e 24 69
e 24 74
e 24 75
e 24 76
e 24 77
e 24 78
e 24 87
e 24 89
e 24 92
e 24 93
e 24 94
e 24 100
e 24 101
e 24 110
e 24 113
e 24 114
e 24 120
e 24 124
e 24 125
e 24 130
e 24 132
e 24 133
e 24 136
e 24 139
e 24 141
e 24 147
e 24 150
e 24 159
e 24 161
e 24 162
e 24 166
e 24 174
e 24 175
e 24 176
e 24 178
e 24 179
e 24 180
e 24 181
e 24 184
e 24 188
e 24 194
e 24 198
e 24 200
e 25 26
e 25 28
e 25 29
e 25 31
e 25 33
e 25 35
e 25 38
e 25 40
e 25 41
e 25 43
e 25 44
e 25 45
e 25 47
e 25 48
e 25 51
e 25 52
e 25 57
e 25 64
e 25 65
e 25 67
e 25 68
e 25 71
e 25 75
e 25 76
e 25 80
e 25 95
e 25 96
e 25 99
e 25 100
e 25 101
e 25 105
e 25 108
e 25 109
e 25 124
e 25 125
e 25 127
e 25 129
e 25 135
e 25 141
e 25 142
e 25 155
e 25 159
e 25 164
e 25 170
e 25 172
e 25 182
e 25 187
e 25 191
e 25 192
e 25 199
e 26 27
e 26 28
e 26 29
e 26 30
e 26 32
e 26 41
e 26 43
e 26 46
e 26 47
e 26 49
e 26 58
e 26 61
e 26 63
e 26 64
e 26 68
e 26 71
e 26 77
e 26 79
e 26 88
e 26 89
e 26 90
e 26 97
e 26 98
e 26 101
e 26 103
e 26 118
e 26 126
e 26 133
e 26 135
e 26 141
e 26 142
e 26 143
e 26 148
e 26 150
e 26 151
e 26 158
e 26 161
e 26 163
e 26 180
e 26 181
e 26 184
e 26 187
e 26 188
e 26 189
e 26 192
e 27 28
e 27 33
e 27 34
e 27 35
e 27 36
e 27 37
e 27 38
e 27 43
e 27 44
e 27 45
e 27 47
e 27 49
e 27 55
e 27 56
e 27 57
e 27 59
e 27 62
e 27 63
e 27 68
e 27 74
e 27 78
e 27 80
e 27 81
e 27 82
e 27 87
e 27 90
e 27 93
e 27 97
e 27 99
e 27 104
e 27 109
e 27 111
e 27 114
e 27 122
e 27 144
e 27 151
e 27 155
e 27 158
e 27 162
e 27 164
e 27 173
e 27 177
e 27 178
e 27 180
e 27 196
e 28 29
e 28 30
e 28 31
e 28 32
e 28 35
e 28 36
e 28 37
e 28 38
e 28 41
e 28 42
e 28 50
e 28 51
e 28 52
e 28 53
e 28 55
e 28 57
e 28 60
e 28 62
e 28 63
e 28 67
e 28 69
e 28 71
e 28 73
e 28 75
e 28 77
e 28 80
e 28 81
e 28 86
e 28 93
e 28 94
e 28 102
e 28 113
e 28 114
e 28 115
e 28 117
e 28 119
e 28 124
e 28 125
e 28 129
e 28 133
e 28 135
e 28 136
e 28 137
e 28 144
e 28 157
e 28 158
e 28 159
e 28 161
e 28 177
e 28 184
e 28 190
e 28 198
e 28 201
e 28 202
e 29 30
e 29 32
e 29 33
e 29 34
e 29 36
e 29 37
e 29 39
e 29 40
e 29 41
e 29 43
e 29 46
e 29 47
e 29 54
e 29 59
e 29 62
e 29 63
e 29 64
e 29 67
e 29 68
e 29 72
e 29 76
e 29 79
e 29 86
e 29 89
e 29 92
e 29 96
e 29 97
e 29 99
e 29 100
e 29 101
e 29 107
e 29 116
e 29 133
e 29 134
e 29 135
e 29 137
e 29 143
e 29 145
e 29 146
e 29 154
e 29 155
e 29 156
e 29 157
e 29 161
e 29 167
e 29 168
e 29 180
e 29 185
e 29 189
e 29 192
e 29 199
e 30 31
e 30 33
e 30 34
e 30 36
e 30 37
e 30 38
e 30 40
e 30 43
e 30 46
e 30 47
e 30 50
e 30 52
e 30 53
e 30 56
e 30 59
e 30 61
e 30 62
e 30 64
e 30 66
e 30 67
e 30 68
e 30 80
e 30 83
e 30 87
e 30 98
e 30 99
e 30 103
e 30 106
e 30 117
e 30 118
e 30 120
e 30 121
e 30 127
e 30 136
e 30 138
e 30 146
e 30 153
e 30 166
e 30 168
e 30 173
e 30 186
e 30 193
e 31 32
e 31 35
e 31 36
e 31 37
e 31 43
e 31 51
e 31 52
e 31 53
e 31 55
e 31 57
e 31 58
e 31 59
e 31 63
e 31 64
e 31 65
e 31 68
e 31 71
e 31 74
e 31 76
e 31 81
e 31 85
e 31 90
e 31 94
e 31 100
e 31 102
e 31 104
e 31 122
e 31 125
e 31 130
e 31 140
e 31 142
e 31 144
e 31 148
e 31 158
e 31 161
e 31 173
e 31 177
e 31 178
e 31 189
e 32 33
e 32 34
e 32 35
e 32 37
e 32 38
e 32 42
e 32 44
e 32 45
e 32 47
e 32 49
e 32 54
e 32 61
e 32 62
e 32 63
e 32 67
e 32 73
e 32 74
e 32 79
e 32 87
e 32 88
e 32 89
e 32 91
e 32 93
e 32 95
e 32 96
e 32 98
e 32 101
e 32 103
e 32 105
e 32 110
e 32 112
e 32 113
e 32 114
e 32 116
e 32 131
e 32 132
e 32 133
e 32 134
e 32 138
e 32 142
e 32 149
e 32 160
e 32 173
e 32 174
e 32 180
e 32 182
e 32 184
e 32 197
e 32 198
e 32 203
e 33 35
e 33 36
e 33 37
e 33 44
e 33 52
e 33 53
e 33 66
e 33 69
e 33 89
e 33 91
e 33 99
e 33 119
e 33 123
e 33 126
e 33 144
e 33 147
e 33 148
e 33 164
e 33 167
e 33 168
e 33 178
e 33 179
e 33 182
e 33 190
e 33 198
e 33 199
e 34 38
e 34 40
e 34 41
e 34 44
e 34 51
e 34 52
e 34 56
e 34 58
e 34 66
e 34 69
e 34 76
e 34 78
e 34 79
e 34 81
e 34 83
e 34 85
e 34 86
e 34 87
e 34 92
e 34 93
e 34 98
e 34 100
e 34 106
e 34 108
e 34 111
e 34 112
e 34 114
e 34 120
e 34 121
e 34 129
e 34 137
e 34 140
e 34 141
e 34 145
e 34 170
e 34 177
e 34 181
e 34 184
e 34 185
e 34 187
e 34 188
e 34 197
e 35 37
e 35 39
e 35 40
e 35 44
e 35 45
e 35 46
e 35 49
e 35 52
e 35 70
e 35 72
e 35 84
e 35 88
e 35 92
e 35 97
e 35 102
e 35 104
e 35 109
e 35 112
e 35 118
e 35 123
e 35 146
e 35 149
e 35 155
e 35 171
e 35 179
e 35 182
e 35 196
e 36 38
e 36 39
e 36 41
e 36 42
e 36 45
e 36 46
e 36 59
e 36 60
e 36 65
e 36 72
e 36 73
e 36 77
e 36 78
e 36 81
e 36 86
e 36 88
e 36 91
e 36 92
e 36 99
e 36 102
e 36 103
e 36 106
e 36 111
e 36 119
e 36 120
e 36 130
e 36 131
e 36 134
e 36 144
e 36 146
e 36 149
e 36 150
e 36 151
e 36 155
e 36 159
e 36 160
e 36 161
e 36 171
e 36 193
e 36 194
e 36 195
e 36 198
e 37 38
e 37 39
e 37 42
e 37 46
e 37 51
e 37 52
e 37 59
e 37 62
e 37 63
e 37 64
e 37 65
e 37 67
e 37 72
e 37 73
e 37 82
e 37 85
e 37 92
e 37 108
e 37 109
e 37 110
e 37 115
e 37 123
e 37 129
e 37 134
e 37 139
e 37 151
e 37 153
e 37 161
e 37 164
e 37 165
e 37 167
e 37 171
e 37 174
e 37 175
e 37 184
e 37 186
e 37 189
e 37 197
e 38 39
e 38 40
e 38 41
e 38 43
e 38 47
e 38 50
e 38 51
e 38 53
e 38 54
e 38 55
e 38 56
e 38 57
e 38 58
e 38 60
e 38 65
e 38 68
e 38 71
e 38 78
e 38 80
e 38 83
e 38 84
e 38 96
e 38 103
e 38 107
e 38 109
e 38 112
e 38 114
e 38 117
e 38 119
e 38 120
e 38 157
e 38 163
e 38 168
e 38 169
e 38 178
e 38 179
e 38 181
e 38 188
e 38 194
e 38 203
e 39 41
e 39 42
e 39 43
e 39 44
e 39 45
e 39 46
e 39 48
e 39 49
e 39 51
e 39 54
e 39 56
e 39 60
e 39 64
e 39 66
e 39 71
e 39 77
e 39 80
e 39 90
e 39 91
e 39 96
e 39 97
e 39 98
e 39 101
e 39 108
e 39 110
e 39 112
e 39 123
e 39 125
e 39 137
e 39 138
e 39 142
e 39 146
e 39 147
e 39 151
e 39 157
e 39 169
e 39 170
e 39 173
e 39 174
e 39 177
e 39 184
e 39 185
e 39 187
e 39 190
e 39 191
e 39 195
e 40 42
e 40 43
e 40 46
e 40 48
e 40 51
e 40 54
e 40 62
e 40 65
e 40 68
e 40 70
e 40 71
e 40 74
e 40 84
e 40 89
e 40 90
e 40 92
e 40 95
e 40 116
e 40 119
e 40 127
e 40 129
e 40 134
e 40 140
e 40 142
e 40 150
e 40 156
e 40 158
e 40 159
e 40 162
e 40 198
e 40 200
e 41 44
e 41 46
e 41 47
e 41 50
e 41 52
e 41 55
e 41 56
e 41 59
e 41 61
e 41 66
e 41 72
e 41 75
e 41 79
e 41 98
e 41 102
e 41 109
e 41 113
e 41 127
e 41 129
e 41 130
e 41 133
e 41 134
e 41 135
e 41 154
e 41 160
e 41 163
e 41 164
e 41 176
e 41 179
e 41 182
e 41 195
e 41 202
e 42 44
e 42 48
e 42 49
e 42 50
e 42 51
e 42 61
e 42 67
e 42 75
e 42 77
e 42 88
e 42 89
e 42 94
e 42 101
e 42 102
e 42 103
e 42 108
e 42 114
e 42 116
e 42 118
e 42 120
e 42 151
e 42 169
e 42 173
e 42 180
e 43 46
e 43 48
e 43 49
e 43 54
e 43 55
e 43 61
e 43 65
e 43 69
e 43 71
e 43 72
e 43 73
e 43 74
e 43 76
e 43 77
e 43 79
e 43 83
e 43 86
e 43 91
e 43 93
e 43 107
e 43 120
e 43 126
e 43 128
e 43 146
e 43 152
e 43 166
e 43 169
e 43 171
e 43 187
e 43 191
e 43 193
e 43 197
e 44 48
e 44 73
e 44 77
e 44 86
e 44 87
e 44 100
e 44 102
e 44 106
e 44 128
e 44 132
e 44 143
e 44 154
e 44 160
e 44 161
e 44 185
e 45 51
e 45 66
e 45 68
e 45 73
e 45 79
e 45 81
e 45 84
e 45 91
e 45 100
e 45 106
e 45 124
e 45 126
e 45 131
e 45 138
e 45 144
e 45 162
e 45 183
e 45 187
e 46 49
e 46 50
e 46 53
e 46 55
e 46 58
e 46 61
e 46 64
e 46 72
e 46 76
e 46 80
e 46 82
e 46 91
e 46 113
e 46 116
e 46 133
e 46 135
e 46 138
e 46 145
e 46 159
e 46 172
e 46 196
e 46 200
e 47 48
e 47 56
e 47 57
e 47 72
e 47 81
e 47 86
e 47 88
e 47 91
e 47 97
e 47 101
e 47 112
e 47 113
e 47 115
e 47 117
e 47 119
e 47 132
e 47 134
e 47 142
e 47 143
e 47 152
e 47 153
e 47 161
e 47 162
e 47 192
e 47 196
e 47 197
e 48 51
e 48 53
e 48 55
e 48 56
e 48 65
e 48 66
e 48 67
e 48 68
e 48 69
e 48 77
e 48 95
e 48 96
e 48 98
e 48 100
e 48 104
e 48 105
e 48 127
e 48 132
e 48 138
e 48 141
e 48 152
e 48 154
e 48 163
e 48 166
e 48 169
e 48 178
e 48 179
e 48 183
e 48 185
e 48 188
e 48 203
e 49 53
e 49 60
e 49 61
e 49 87
e 49 88
e 49 103
e 49 104
e 49 107
e 49 114
e 49 117
e 49 144
e 49 162
e 49 173
e 49 176
e 49 177
e 49 196
e 49 200
e 49 201
e 50 52
e 50 54
e 50 95
e 50 119
e 50 131
e 50 155
e 50 181
e 50 188
e 50 190
e 50 191
e 51 54
e 51 57
e 51 64
e 51 70
e 51 75
e 51 84
e 51 85
e 51 95
e 51 105
e 51 109
e 51 118
e 51 148
e 51 158
e 51 164
e 51 170
e 51 195
e 52 53
e 52 60
e 52 63
e 52 69
e 52 73
e 52 74
e 52 75
e 52 82
e 52 99
e 52 101
e 52 130
e 52 141
e 52 143
e 52 152
e 52 161
e 52 163
e 52 168
e 52 173
e 53 59
e 53 66
e 53 78
e 53 83
e 53 85
e 53 87
e 53 91
e 53 100
e 53 105
e 53 114
e 53 116
e 53 117
e 53 120
e 53 128
e 53 132
e 53 150
e 53 157
e 53 159
e 53 166
e 53 170
e 53 171
e 53 186
e 53 191
e 53 202
e 54 60
e 54 62
e 54 63
e 54 70
e 54 71
e 54 73
e 54 74
e 54 84
e 54 89
e 54 108
e 54 110
e 54 111
e 54 112
e 54 119
e 54 122
e 54 125
e 54 130
e 54 135
e 54 139
e 54 144
e 54 151
e 54 152
e 54 167
e 54 168
e 54 175
e 54 195
e 54 197
e 54 198
e 55 64
e 55 70
e 55 73
e 55 76
e 55 82
e 55 83
e 55 97
e 55 102
e 55 114
e 55 118
e 55 127
e 55 128
e 55 131
e 55 134
e 55 136
e 55 148
e 55 153
e 55 162
e 55 168
e 55 172
e 55 178
e 55 190
e 56 58
e 56 66
e 56 69
e 56 70
e 56 83
e 56 96
e 56 98
e 56 100
e 56 105
e 56 117
e 56 118
e 56 137
e 56 154
e 56 168
e 56 188
e 56 189
e 56 193
e 56 200
e 57 60
e 57 68
e 57 79
e 57 80
e 57 91
e 57 97
e 57 101
e 57 108
e 57 116
e 57 118
e 57 121
e 57 122
e 57 127
e 57 139
e 57 179
e 57 183
e 57 186
e 57 194
e 58 59
e 58 66
e 58 70
e 58 86
e 58 101
e 58 123
e 58 136
e 58 163
e 58 168
e 58 170
e 58 181
e 58 184
e 59 60
e 59 67
e 59 75
e 59 78
e 59 95
e 59 98
e 59 122
e 59 132
e 59 134
e 59 158
e 59 167
e 59 195
e 60 61
e 60 64
e 60 72
e 60 79
e 60 84
e 60 91
e 60 92
e 60 93
e 60 94
e 60 97
e 60 103
e 60 104
e 60 105
e 60 111
e 60 112
e 60 120
e 60 128
e 60 145
e 60 164
e 60 167
e 60 178
e 60 180
e 60 181
e 60 192
e 60 195
e 60 203
e 61 86
e 61 90
e 61 92
e 61 99
e 61 108
e 61 109
e 61 110
e 61 112
e 61 113
e 61 115
e 61 130
e 61 131
e 61 159
e 61 176
e 61 188
e 61 201
e 62 79
e 62 82
e 62 84
e 62 91
e 62 98
e 62 108
e 62 111
e 62 116
e 62 119
e 62 120
e 62 129
e 62 152
e 62 160
e 62 175
e 62 183
e 62 196
e 63 71
e 63 75
e 63 77
e 63 78
e 63 83
e 63 104
e 63 136
e 63 149
e 63 156
e 63 157
e 63 175
e 63 203
e 64 71
e 64 82
e 64 84
e 64 86
e 64 107
e 64 115
e 64 138
e 64 146
e 64 152
e 64 160
e 64 163
e 64 172
e 64 189
e 64 192
e 65 72
e 65 85
e 65 88
e 65 105
e 65 109
e 65 128
e 65 130
e 65 137
e 65 169
e 65 182
e 65 188
e 65 193
e 65 202
e 66 71
e 66 73
e 66 74
e 66 84
e 66 100
e 66 101
e 66 106
e 66 108
e 66 112
e 66 124
e 66 127
e 66 130
e 66 157
e 66 163
e 66 167
e 66 174
e 66 180
e 66 198
e 67 76
e 67 79
e 67 88
e 67 89
e 67 92
e 67 93
e 67 96
e 67 113
e 67 115
e 67 120
e 67 122
e 67 125
e 67 131
e 67 132
e 67 137
e 67 140
e 67 148
e 67 184
e 67 188
e 67 192
e 67 203
e 68 86
e 68 99
e 68 109
e 68 112
e 68 120
e 68 129
e 68 135
e 68 150
e 68 159
e 68 166
e 68 184
e 68 190
e 68 197
e 68 202
e 69 71
e 69 73
e 69 97
e 69 104
e 69 108
e 69 110
e 69 111
e 69 114
e 69 122
e 69 128
e 69 135
e 69 167
e 69 175
e 69 186
e 69 190
e 70 84
e 70 89
e 70 92
e 70 121
e 70 124
e 70 152
e 70 168
e 70 169
e 70 177
e 70 187
e 70 190
e 70 201
e 70 203
e 71 75
e 71 79
e 71 80
e 71 83
e 71 87
e 71 94
e 71 96
e 71 108
e 71 127
e 71 128
e 71 130
e 71 134
e 71 135
e 71 139
e 71 141
e 71 154
e 71 159
e 71 162
e 71 167
e 71 169
e 71 179
e 71 182
e 71 193
e 72 82
e 72 85
e 72 94
e 72 97
e 72 98
e 72 102
e 72 106
e 72 114
e 72 139
e 72 150
e 72 158
e 72 160
e 72 165
e 72 169
e 72 174
e 73 74
e 73 80
e 73 127
e 73 153
e 73 166
e 73 171
e 73 184
e 73 194
e 74 85
e 74 87
e 74 90
e 74 101
e 74 107
e 74 127
e 74 135
e 74 140
e 74 149
e 74 165
e 74 179
e 74 183
e 74 196
e 75 76
e 75 85
e 75 88
e 75 90
e 75 96
e 75 102
e 75 135
e 75 144
e 75 145
e 75 155
e 75 157
e 75 158
e 75 163
e 75 168
e 76 80
e 76 90
e 76 111
e 76 116
e 76 117
e 76 123
e 76 126
e 76 139
e 76 146
e 76 191
e 76 197
e 77 89
e 77 94
e 77 102
e 77 116
e 77 123
e 77 124
e 77 140
e 77 157
e 77 196
e 78 79
e 78 83
e 78 85
e 78 90
e 78 95
e 78 99
e 78 101
e 78 102
e 78 104
e 78 116
e 78 132
e 78 140
e 78 151
e 78 154
e 79 116
e 79 121
e 79 139
e 79 148
e 79 181
e 80 81
e 80 88
e 80 95
e 80 97
e 80 98
e 80 109
e 80 110
e 80 117
e 80 127
e 80 145
e 80 154
e 80 165
e 80 175
e 80 179
e 80 180
e 80 194
e 81 82
e 81 83
e 81 84
e 81 85
e 81 102
e 81 107
e 81 110
e 81 116
e 81 118
e 81 124
e 81 125
e 81 132
e 81 161
e 81 179
e 81 195
e 82 90
e 82 92
e 82 116
e 82 123
e 82 134
e 82 136
e 82 144
e 82 152
e 82 155
e 82 175
e 83 90
e 83 94
e 83 111
e 83 181
e 83 191
e 83 192
e 83 199
e 83 201
e 84 94
e 84 96
e 84 105
e 84 111
e 84 121
e 84 122
e 84 126
e 84 156
e 84 166
e 84 178
e 84 200
e 85 86
e 85 87
e 85 98
e 85 99
e 85 103
e 85 107
e 85 108
e 85 117
e 85 119
e 85 126
e 85 131
e 85 134
e 85 138
e 85 143
e 85 145
e 85 148
e 85 155
e 85 160
e 85 176
e 85 195
e 86 92
e 86 95
e 86 123
e 86 124
e 86 128
e 86 131
e 86 132
e 86 139
e 86 149
e 86 173
e 86 199
e 87 94
e 87 129
e 87 131
e 87 147
e 87 162
e 87 164
e 87 169
e 87 170
e 87 192
e 87 202
e 88 102
e 88 103
e 88 112
e 88 122
e 88 129
e 88 140
e 88 149
e 88 152
e 88 153
e 88 161
e 88 166
e 88 176
e 88 180
e 88 186
e 88 196
e 88 199
e 89 103
e 89 126
e 89 140
e 89 143
e 89 147
e 89 167
e 89 201
e 90 106
e 90 119
e 90 121
e 90 141
e 90 150
e 90 178
e 91 95
e 91 127
e 91 146
e 91 173
e 91 183
e 92 103
e 92 104
e 92 106
e 92 110
e 92 169
e 92 174
e 92 186
e 92 189
e 92 191
e 93 100
e 93 105
e 93 109
e 93 129
e 93 146
e 93 166
e 93 171
e 93 185
e 94 96
e 94 100
e 94 104
e 94 105
e 94 106
e 94 121
e 94 135
e 94 148
e 94 174
e 94 198
e 94 201
e 95 107
e 95 120
e 95 126
e 95 128
e 95 136
e 95 138
e 95 147
e 95 149
e 95 190
e 96 165
e 96 167
e 96 182
e 96 188
e 96 194
e 97 106
e 97 115
e 97 121
e 97 128
e 97 133
e 97 157
e 97 162
e 97 163
e 97 172
e 97 175
e 98 126
e 98 127
e 98 148
e 98 160
e 98 169
e 98 172
e 98 192
e 99 106
e 99 114
e 99 121
e 99 129
e 99 132
e 99 142
e 99 155
e 99 156
e 99 163
e 99 169
e 99 182
e 99 195
e 99 200
e 100 106
e 100 115
e 100 121
e 100 146
e 100 172
e 101 117
e 101 120
e 101 123
e 101 125
e 101 130
e 101 147
e 101 149
e 101 157
e 101 160
e 101 181
e 101 201
e 102 104
e 102 105
e 102 110
e 102 136
e 102 151
e 102 185
e 103 110
e 103 130
e 103 139
e 103 148
e 103 200
e 104 107
e 104 119
e 104 121
e 104 124
e 104 152
e 104 153
e 104 156
e 104 158
e 104 177
e 104 183
e 104 186
e 104 188
e 104 193
e 105 112
e 105 173
e 105 174
e 105 196
e 106 139
e 106 142
e 106 173
e 106 190
e 106 200
e 107 113
e 107 116
e 107 121
e 107 126
e 107 150
e 107 153
e 107 162
e 107 175
e 107 187
e 108 122
e 108 131
e 108 158
e 108 166
e 109 124
e 109 135
e 109 147
e 109 153
e 109 164
e 109 175
e 109 201
e 110 112
e 110 157
e 110 182
e 110 188
e 110 193
e 111 113
e 111 114
e 111 135
e 111 140
e 111 180
e 111 192
e 111 202
e 112 114
e 112 147
e 112 159
e 112 185
e 112 194
e 113 125
e 113 133
e 113 138
e 113 139
e 113 153
e 113 159
e 113 164
e 113 165
e 113 168
e 113 170
e 114 123
e 114 125
e 114 129
e 114 136
e 114 145
e 114 154
e 114 158
e 115 124
e 115 130
e 115 131
e 115 135
e 115 141
e 115 143
e 115 173
e 115 183
e 115 186
e 115 191
e 116 167
e 116 184
e 116 185
e 117 126
e 117 146
e 117 150
e 117 165
e 117 185
e 118 119
e 118 125
e 118 134
e 118 153
e 118 160
e 118 168
e 118 172
e 119 136
e 119 142
e 120 130
e 120 143
e 120 149
e 120 152
e 120 165
e 120 175
e 120 176
e 120 183
e 120 193
e 120 198
e 121 124
e 121 125
e 121 143
e 121 147
e 121 160
e 121 163
e 121 176
e 121 198
e 122 154
e 123 136
e 123 141
e 123 150
e 123 166
e 123 180
e 123 181
e 123 200
e 124 128
e 124 136
e 124 143
e 124 149
e 124 194
e 125 145
e 125 147
e 125 186
e 125 190
e 125 191
e 126 133
e 126 137
e 126 145
e 126 167
e 126 168
e 126 202
e 127 169
e 127 199
e 128 131
e 128 134
e 128 137
e 128 138
e 128 139
e 128 140
e 128 145
e 128 156
e 128 164
e 128 172
e 128 187
e 129 137
e 129 144
e 129 189
e 129 193
e 131 156
e 131 161
e 131 179
e 131 198
e 132 144
e 132 151
e 132 194
e 133 143
e 133 144
e 133 155
e 133 159
e 133 177
e 133 203
e 134 151
e 134 154
e 134 185
e 135 142
e 136 162
e 136 196
e 137 174
e 137 195
e 138 144
e 138 154
e 138 156
e 138 157
e 138 162
e 138 199
e 141 142
e 141 151
e 141 167
e 141 173
e 141 190
e 141 200
e 141 202
e 142 143
e 142 148
e 142 153
e 142 154
e 142 187
e 142 195
e 143 161
e 145 174
e 147 171
e 147 181
e 147 193
e 147 196
e 147 203
e 148 203
e 149 167
e 150 155
e 151 160
e 151 166
e 151 169
e 151 170
e 151 177
e 151 196
e 151 198
e 152 165
e 152 166
e 153 156
e 153 172
e 155 162
e 155 177
e 155 201
e 156 172
e 157 178
e 158 172
e 158 174
e 158 183
e 159 171
e 160 186
e 161 165
e 161 202
e 162 166
e 162 169
e 163 173
e 164 179
e 165 170
e 165 171
e 165 178
e 167 176
e 167 177
e 168 177
e 168 179
e 168 190
e 168 193
e 168 195
e 168 197
e 169 170
e 169 172
e 169 175
e 169 180
e 169 190
e 170 171
e 170 200
e 172 175
e 172 203
e 173 185
e 174 187
e 175 176
e 175 189
e 175 191
e 175 192
e 175 193
e 176 194
e 176 195
e 176 202
e 177 201
e 179 190
e 179 195
e 180 201
e 181 187
e 181 197
e 184 193
e 185 186
e 185 194
e 185 203
e 186 189
e 187 197
e 187 203
e 189 201
e 190 192
e 191 198
e 192 200
e 194 196
e 195 201
e 198 199
